p cnf 50 50
-8 9 -13 0
-35 -12 50 0
-3 20 -33 0
35 15 24 0
31 34 18 0
23 49 43 0
-29 50 16 0
-23 -4 -39 0
-30 42 -13 0
42 -48 -38 0
-46 -37 -50 0
6 28 45 0
45 -23 10 0
2 -9 13 0
21 31 17 0
-43 -2 34 0
-25 -11 -12 0
-6 -3 -11 0
-50 -28 -31 0
-29 2 1 0
-12 -3 -46 0
3 -8 17 0
3 -31 32 0
-19 -36 34 0
-42 50 -25 0
36 25 -35 0
-21 -27 3 0
-13 2 -16 0
19 -7 2 0
-8 -18 -12 0
5 10 -15 0
3 4 -38 0
2 -22 -43 0
-22 37 7 0
-40 -23 -21 0
-31 13 15 0
-36 8 -18 0
-14 -10 44 0
-49 -25 -15 0
-20 -35 -33 0
2 -16 27 0
-33 14 49 0
-22 -13 3 0
28 -1 23 0
6 -4 -36 0
-37 -21 31 0
-15 41 -34 0
-24 -27 -31 0
-36 37 -10 0
-29 -25 39 0
